letting n =  10
letting blocks =  [[1, 8], [2, 1], [2, 2], [2, 6], [2, 9], [3, 2], [3, 3], [3, 6], [3, 10], [4, 1], [4, 3], [5, 1], [5, 3], [5, 4], [5, 7], [5, 10], [6, 4], [6, 7], [6, 10], [7, 3], [7, 7], [7, 8], [8, 3], [9, 3], [9, 4], [9, 5], [10, 4], [10, 5]]
